#Parameters
SYSTEM  = 3FCC
PREC    =  Accurate
ISTART = 0 
ICHARG = 2
ISMEAR = -5
SIGMA = 0.05
ENCUT   =  420
NSW=0
EDIFF = 1e-5
NELM=1000
ISPIN=2
LORBIT=11
MAGMOM=108*1.2
LELF=.TRUE.
LAECHG = .TRUE.
ALGO = Fast
LREAL  = Auto
NPAR = 8
ISYM=0
LWAVE = .T
LCHARG = .T