#Parameters
SYSTEM  = 3FCC
PREC    =  Accurate
ISTART = 1 
ICHARG = 11  
ISMEAR = -5
SIGMA = 0.05
ENCUT   =  420
NSW=0
EDIFF = 1e-5
NELM=1000
LORBIT=11
ISPIN=2
MAGMOM=108*1.2
NEDOS= 2000
ALGO = Fast
LREAL  = Auto
ISYM=0
NPAR = 8
