Automatic mesh
  0
Monkhorst-pack
  6  6  6
  0  0  0
