POSCAR                        
3.5300000000
      1.732050807569     -2.121320343560     -1.224744871392
      1.732050807569      2.121320343560     -1.224744871392
      1.732050807569      0.000000000000      2.449489742783
   Ni   Cr   Co
  36  36  36
Direct
        0.0018843797        0.9992866362        0.6697617272
        0.9984736341        0.1668814951        0.8352938489
        0.1677251391        0.0016278126        0.8326884292
        0.0003871433        0.1658561580        0.4985895484
        0.9999737874        0.4986891575        0.8339450609
        0.1677072649        0.0020914165        0.5008682493
        0.3321921748        0.0008403568        0.6680494987
        0.3342355808        0.1702211333        0.8316699588
        0.0019810463        0.0019980185        0.0038884480
        0.9995734095        0.4981956242        0.4965152065
        0.1662101754        0.4970223706        0.6655369560
        0.1647732075        0.6652310720        0.8332719773
        0.3329928443        0.9993110105        0.3337279118
        0.3335952353        0.4990112846        0.8327648879
        0.4982227510        0.9987480786        0.5010725752
        0.5008310144        0.1672886646        0.6643258352
        0.1686788381        0.1678353137        0.0021904843
        0.1661206657        0.6664353511        0.5004638427
        0.3339596642        0.1679331689        0.1671524270
        0.4987929613        0.0024369469        0.1663408528
        0.6665644480        0.5001110088        0.8343182262
        0.9996949742        0.6643340426        0.0026715801
        0.3354900737        0.3333335639        0.9987462468
        0.5016002162        0.3320661777        0.1667262558
        0.6648532482        0.0001968755        0.0002057473
        0.6653771770        0.1667530806        0.1673358646
        0.8351743517        0.0016578196        0.1659772916
        0.8342521881        0.1635532893        0.3332184198
        0.8338403769        0.6670852498        0.8342027881
        0.3347691523        0.8321067750        0.1645930291
        0.4985202837        0.6652159319        0.1644686093
        0.5003473721        0.8327558185        0.3355508139
        0.8355262042        0.8345819581        0.6699896950
        0.6674444132        0.6669269340        0.0019971486
        0.8333918073        0.6638131423        0.1683798839
        0.8323800048        0.8341197964        0.3304183908
        0.9961755982        0.9949232940        0.3349440724
        0.9950248910        0.3337902343        0.6698954827
        0.1626470379        0.1730238995        0.6640799713
        0.5018979432        0.9997721690        0.8323177162
        0.9977498715        0.1740333660        0.1670130585
        0.9969992561        0.6602736716        0.6633424438
        0.0027771949        0.8353124691        0.8382856306
        0.1714302296        0.9963876465        0.1650734524
        0.1634940431        0.1610617177        0.3289944581
        0.1680808896        0.3368272652        0.4941221090
        0.3363631638        0.1657852002        0.4963504797
        0.8272140790        0.0074305014        0.8328058269
        0.0007291127        0.4912521649        0.1723689550
        0.1740286834        0.3391195688        0.1649604445
        0.5074229340        0.3426028870        0.4995394603
        0.5006176066        0.4995316453        0.6667022203
        0.4993215462        0.6713282311        0.8290755044
        0.6671117681        0.9991358883        0.3363956707
        0.6729405296        0.3265927408        0.6764151428
        0.1689343558        0.6691160697        0.1611489683
        0.1691903032        0.8313308771        0.3374231306
        0.4948178093        0.4963034992        0.3258779543
        0.4921515653        0.6718224489        0.5041273702
        0.6688744184        0.5026625486        0.4958270462
        0.6687312994        0.8340998299        0.8317181747
        0.8333364862        0.3253445981        0.4924552585
        0.8293397823        0.4986853159        0.6672595314
        0.4977578455        0.4986608888        0.0009091546
        0.6669238082        0.3297961087        0.9995600456
        0.6617903315        0.6657911737        0.3334478037
        0.6682173565        0.8312200119        0.5069856408
        0.8315806074        0.4949015516        0.3349851572
        0.8378999423        0.6752329259        0.4946982623
        0.6606947153        0.8341304460        0.1644008883
        0.8342665912        0.4975862006        0.0014854867
        0.8389915485        0.8352748637        0.0019315902
        0.1653154331        0.3338463576        0.8315098174
        0.0025028533        0.3316370201        0.3330216578
        0.3321871463        0.3324259460        0.6627544275
        0.5022574412        0.3350638156        0.8299337675
        0.6643062617        0.9995464804        0.6685979459
        0.6663688586        0.1670439814        0.8344574079
        0.0001544923        0.3314758534        0.0054697196
        0.0008191217        0.6686730520        0.3295862374
        0.0013965823        0.8328536792        0.4987420056
        0.1679685863        0.5024405131        0.3296527077
        0.1652293201        0.8310533897        0.6671242904
        0.3334125171        0.9988389440        0.9973960658
        0.3285982154        0.3355971852        0.3373484225
        0.3366979662        0.4988420371        0.4997841794
        0.3350857832        0.6680675244        0.6677075244
        0.3313861513        0.8322375774        0.8343876395
        0.4982291326        0.1682691797        0.3391304546
        0.6677997469        0.1706623346        0.4999119702
        0.8330122992        0.9975286809        0.5009608940
        0.8328710525        0.1667976420        0.6657104811
        0.8340831977        0.3333381291        0.8348411995
        0.0041375098        0.8347215129        0.1675237783
        0.1657094747        0.4980677704        0.0029495491
        0.3303323621        0.5001497354        0.1653209139
        0.3332747351        0.6639598782        0.3329995679
        0.3314625974        0.8312776301        0.5019777504
        0.5002495272        0.1652731512        0.9967298851
        0.5007443470        0.8319881935        0.6714430444
        0.6644800749        0.3339593389        0.3335768281
        0.6678383612        0.6679661396        0.6653780219
        0.1663464969        0.8335653103        0.9998618913
        0.3317196358        0.6689090732        0.9980009834
        0.6667367226        0.5000994872        0.1704085175
        0.8326019443        0.1682447359        0.0008008265
        0.8326899314        0.3359840736        0.1664281312
        0.4989317672        0.8338981931        0.9947302153
